58	12	4	47	
14	12	11	11

0	0	0	0	0	0	3	1	2	3
1	7	6	3	7	4	1	9
2	9	3	3	5	8	1	5
3	10	4	9	1	9	1	4
4	9	2	6	9	5	2	6	9
5	4	10	9	8	2	2	7	8
6	5	3	2	10	2	2	7	8
7	5	6	2	1	6	1	10
8	6	9	4	9	5	1	11
9	10	1	2	5	10	1	11
10	2	3	7	5	7	1	11
11	0	0	0	0	0	0
